p cnf 7 34
6 7 -4 -5 2 0
-4 5 0
4 1 6 -3 -5 -2 7 0
4 -3 5 0
-1 -2 6 0
-1 -6 -2 0
-7 -2 0
4 7 -1 -2 0
-6 -1 -3 0
-3 4 2 -6 0
3 -4 5 7 1 -6 0
2 -5 1 6 0
2 5 -6 0
2 -6 0
-2 -3 -4 -5 7 -6 -1 0
6 -3 7 0
6 -2 7 0
2 5 0
-7 -1 -4 -5 0
-5 -6 1 0
-1 -2 -4 0
-7 -1 -4 0
-2 -3 -5 4 7 0
-2 4 6 0
6 1 -4 -2 0
-5 1 -4 6 2 0
-2 -3 1 0
-7 5 1 6 -3 2 4 0
6 4 -7 -2 -5 -1 0
3 -4 0
-2 7 4 0
-2 6 4 5 -7 0
-2 6 1 0
1 4 2 0
